Input/IP/Random/Random_020_05_5.lp
min: z;
+y0 +y1 +y2 +y3 +y4 +y5 +y6 +y7 +y8 +y9 +y10 +y11 +y12 +y13 +y14 +y15 +y16 +y17 +y18 +y19 = 5;
+x0.0 +x0.1 +x0.2 +x0.3 +x0.4 +x0.5 +x0.6 +x0.7 +x0.8 +x0.9 +x0.10 +x0.11 +x0.12 +x0.13 +x0.14 +x0.15 +x0.16 +x0.17 +x0.18 +x0.19 = 1;
+x1.0 +x1.1 +x1.2 +x1.3 +x1.4 +x1.5 +x1.6 +x1.7 +x1.8 +x1.9 +x1.10 +x1.11 +x1.12 +x1.13 +x1.14 +x1.15 +x1.16 +x1.17 +x1.18 +x1.19 = 1;
+x2.0 +x2.1 +x2.2 +x2.3 +x2.4 +x2.5 +x2.6 +x2.7 +x2.8 +x2.9 +x2.10 +x2.11 +x2.12 +x2.13 +x2.14 +x2.15 +x2.16 +x2.17 +x2.18 +x2.19 = 1;
+x3.0 +x3.1 +x3.2 +x3.3 +x3.4 +x3.5 +x3.6 +x3.7 +x3.8 +x3.9 +x3.10 +x3.11 +x3.12 +x3.13 +x3.14 +x3.15 +x3.16 +x3.17 +x3.18 +x3.19 = 1;
+x4.0 +x4.1 +x4.2 +x4.3 +x4.4 +x4.5 +x4.6 +x4.7 +x4.8 +x4.9 +x4.10 +x4.11 +x4.12 +x4.13 +x4.14 +x4.15 +x4.16 +x4.17 +x4.18 +x4.19 = 1;
+x5.0 +x5.1 +x5.2 +x5.3 +x5.4 +x5.5 +x5.6 +x5.7 +x5.8 +x5.9 +x5.10 +x5.11 +x5.12 +x5.13 +x5.14 +x5.15 +x5.16 +x5.17 +x5.18 +x5.19 = 1;
+x6.0 +x6.1 +x6.2 +x6.3 +x6.4 +x6.5 +x6.6 +x6.7 +x6.8 +x6.9 +x6.10 +x6.11 +x6.12 +x6.13 +x6.14 +x6.15 +x6.16 +x6.17 +x6.18 +x6.19 = 1;
+x7.0 +x7.1 +x7.2 +x7.3 +x7.4 +x7.5 +x7.6 +x7.7 +x7.8 +x7.9 +x7.10 +x7.11 +x7.12 +x7.13 +x7.14 +x7.15 +x7.16 +x7.17 +x7.18 +x7.19 = 1;
+x8.0 +x8.1 +x8.2 +x8.3 +x8.4 +x8.5 +x8.6 +x8.7 +x8.8 +x8.9 +x8.10 +x8.11 +x8.12 +x8.13 +x8.14 +x8.15 +x8.16 +x8.17 +x8.18 +x8.19 = 1;
+x9.0 +x9.1 +x9.2 +x9.3 +x9.4 +x9.5 +x9.6 +x9.7 +x9.8 +x9.9 +x9.10 +x9.11 +x9.12 +x9.13 +x9.14 +x9.15 +x9.16 +x9.17 +x9.18 +x9.19 = 1;
+x10.0 +x10.1 +x10.2 +x10.3 +x10.4 +x10.5 +x10.6 +x10.7 +x10.8 +x10.9 +x10.10 +x10.11 +x10.12 +x10.13 +x10.14 +x10.15 +x10.16 +x10.17 +x10.18 +x10.19 = 1;
+x11.0 +x11.1 +x11.2 +x11.3 +x11.4 +x11.5 +x11.6 +x11.7 +x11.8 +x11.9 +x11.10 +x11.11 +x11.12 +x11.13 +x11.14 +x11.15 +x11.16 +x11.17 +x11.18 +x11.19 = 1;
+x12.0 +x12.1 +x12.2 +x12.3 +x12.4 +x12.5 +x12.6 +x12.7 +x12.8 +x12.9 +x12.10 +x12.11 +x12.12 +x12.13 +x12.14 +x12.15 +x12.16 +x12.17 +x12.18 +x12.19 = 1;
+x13.0 +x13.1 +x13.2 +x13.3 +x13.4 +x13.5 +x13.6 +x13.7 +x13.8 +x13.9 +x13.10 +x13.11 +x13.12 +x13.13 +x13.14 +x13.15 +x13.16 +x13.17 +x13.18 +x13.19 = 1;
+x14.0 +x14.1 +x14.2 +x14.3 +x14.4 +x14.5 +x14.6 +x14.7 +x14.8 +x14.9 +x14.10 +x14.11 +x14.12 +x14.13 +x14.14 +x14.15 +x14.16 +x14.17 +x14.18 +x14.19 = 1;
+x15.0 +x15.1 +x15.2 +x15.3 +x15.4 +x15.5 +x15.6 +x15.7 +x15.8 +x15.9 +x15.10 +x15.11 +x15.12 +x15.13 +x15.14 +x15.15 +x15.16 +x15.17 +x15.18 +x15.19 = 1;
+x16.0 +x16.1 +x16.2 +x16.3 +x16.4 +x16.5 +x16.6 +x16.7 +x16.8 +x16.9 +x16.10 +x16.11 +x16.12 +x16.13 +x16.14 +x16.15 +x16.16 +x16.17 +x16.18 +x16.19 = 1;
+x17.0 +x17.1 +x17.2 +x17.3 +x17.4 +x17.5 +x17.6 +x17.7 +x17.8 +x17.9 +x17.10 +x17.11 +x17.12 +x17.13 +x17.14 +x17.15 +x17.16 +x17.17 +x17.18 +x17.19 = 1;
+x18.0 +x18.1 +x18.2 +x18.3 +x18.4 +x18.5 +x18.6 +x18.7 +x18.8 +x18.9 +x18.10 +x18.11 +x18.12 +x18.13 +x18.14 +x18.15 +x18.16 +x18.17 +x18.18 +x18.19 = 1;
+x19.0 +x19.1 +x19.2 +x19.3 +x19.4 +x19.5 +x19.6 +x19.7 +x19.8 +x19.9 +x19.10 +x19.11 +x19.12 +x19.13 +x19.14 +x19.15 +x19.16 +x19.17 +x19.18 +x19.19 = 1;
x0.0 <= y0;
x0.1 <= y1;
x0.2 <= y2;
x0.3 <= y3;
x0.4 <= y4;
x0.5 <= y5;
x0.6 <= y6;
x0.7 <= y7;
x0.8 <= y8;
x0.9 <= y9;
x0.10 <= y10;
x0.11 <= y11;
x0.12 <= y12;
x0.13 <= y13;
x0.14 <= y14;
x0.15 <= y15;
x0.16 <= y16;
x0.17 <= y17;
x0.18 <= y18;
x0.19 <= y19;
x1.0 <= y0;
x1.1 <= y1;
x1.2 <= y2;
x1.3 <= y3;
x1.4 <= y4;
x1.5 <= y5;
x1.6 <= y6;
x1.7 <= y7;
x1.8 <= y8;
x1.9 <= y9;
x1.10 <= y10;
x1.11 <= y11;
x1.12 <= y12;
x1.13 <= y13;
x1.14 <= y14;
x1.15 <= y15;
x1.16 <= y16;
x1.17 <= y17;
x1.18 <= y18;
x1.19 <= y19;
x2.0 <= y0;
x2.1 <= y1;
x2.2 <= y2;
x2.3 <= y3;
x2.4 <= y4;
x2.5 <= y5;
x2.6 <= y6;
x2.7 <= y7;
x2.8 <= y8;
x2.9 <= y9;
x2.10 <= y10;
x2.11 <= y11;
x2.12 <= y12;
x2.13 <= y13;
x2.14 <= y14;
x2.15 <= y15;
x2.16 <= y16;
x2.17 <= y17;
x2.18 <= y18;
x2.19 <= y19;
x3.0 <= y0;
x3.1 <= y1;
x3.2 <= y2;
x3.3 <= y3;
x3.4 <= y4;
x3.5 <= y5;
x3.6 <= y6;
x3.7 <= y7;
x3.8 <= y8;
x3.9 <= y9;
x3.10 <= y10;
x3.11 <= y11;
x3.12 <= y12;
x3.13 <= y13;
x3.14 <= y14;
x3.15 <= y15;
x3.16 <= y16;
x3.17 <= y17;
x3.18 <= y18;
x3.19 <= y19;
x4.0 <= y0;
x4.1 <= y1;
x4.2 <= y2;
x4.3 <= y3;
x4.4 <= y4;
x4.5 <= y5;
x4.6 <= y6;
x4.7 <= y7;
x4.8 <= y8;
x4.9 <= y9;
x4.10 <= y10;
x4.11 <= y11;
x4.12 <= y12;
x4.13 <= y13;
x4.14 <= y14;
x4.15 <= y15;
x4.16 <= y16;
x4.17 <= y17;
x4.18 <= y18;
x4.19 <= y19;
x5.0 <= y0;
x5.1 <= y1;
x5.2 <= y2;
x5.3 <= y3;
x5.4 <= y4;
x5.5 <= y5;
x5.6 <= y6;
x5.7 <= y7;
x5.8 <= y8;
x5.9 <= y9;
x5.10 <= y10;
x5.11 <= y11;
x5.12 <= y12;
x5.13 <= y13;
x5.14 <= y14;
x5.15 <= y15;
x5.16 <= y16;
x5.17 <= y17;
x5.18 <= y18;
x5.19 <= y19;
x6.0 <= y0;
x6.1 <= y1;
x6.2 <= y2;
x6.3 <= y3;
x6.4 <= y4;
x6.5 <= y5;
x6.6 <= y6;
x6.7 <= y7;
x6.8 <= y8;
x6.9 <= y9;
x6.10 <= y10;
x6.11 <= y11;
x6.12 <= y12;
x6.13 <= y13;
x6.14 <= y14;
x6.15 <= y15;
x6.16 <= y16;
x6.17 <= y17;
x6.18 <= y18;
x6.19 <= y19;
x7.0 <= y0;
x7.1 <= y1;
x7.2 <= y2;
x7.3 <= y3;
x7.4 <= y4;
x7.5 <= y5;
x7.6 <= y6;
x7.7 <= y7;
x7.8 <= y8;
x7.9 <= y9;
x7.10 <= y10;
x7.11 <= y11;
x7.12 <= y12;
x7.13 <= y13;
x7.14 <= y14;
x7.15 <= y15;
x7.16 <= y16;
x7.17 <= y17;
x7.18 <= y18;
x7.19 <= y19;
x8.0 <= y0;
x8.1 <= y1;
x8.2 <= y2;
x8.3 <= y3;
x8.4 <= y4;
x8.5 <= y5;
x8.6 <= y6;
x8.7 <= y7;
x8.8 <= y8;
x8.9 <= y9;
x8.10 <= y10;
x8.11 <= y11;
x8.12 <= y12;
x8.13 <= y13;
x8.14 <= y14;
x8.15 <= y15;
x8.16 <= y16;
x8.17 <= y17;
x8.18 <= y18;
x8.19 <= y19;
x9.0 <= y0;
x9.1 <= y1;
x9.2 <= y2;
x9.3 <= y3;
x9.4 <= y4;
x9.5 <= y5;
x9.6 <= y6;
x9.7 <= y7;
x9.8 <= y8;
x9.9 <= y9;
x9.10 <= y10;
x9.11 <= y11;
x9.12 <= y12;
x9.13 <= y13;
x9.14 <= y14;
x9.15 <= y15;
x9.16 <= y16;
x9.17 <= y17;
x9.18 <= y18;
x9.19 <= y19;
x10.0 <= y0;
x10.1 <= y1;
x10.2 <= y2;
x10.3 <= y3;
x10.4 <= y4;
x10.5 <= y5;
x10.6 <= y6;
x10.7 <= y7;
x10.8 <= y8;
x10.9 <= y9;
x10.10 <= y10;
x10.11 <= y11;
x10.12 <= y12;
x10.13 <= y13;
x10.14 <= y14;
x10.15 <= y15;
x10.16 <= y16;
x10.17 <= y17;
x10.18 <= y18;
x10.19 <= y19;
x11.0 <= y0;
x11.1 <= y1;
x11.2 <= y2;
x11.3 <= y3;
x11.4 <= y4;
x11.5 <= y5;
x11.6 <= y6;
x11.7 <= y7;
x11.8 <= y8;
x11.9 <= y9;
x11.10 <= y10;
x11.11 <= y11;
x11.12 <= y12;
x11.13 <= y13;
x11.14 <= y14;
x11.15 <= y15;
x11.16 <= y16;
x11.17 <= y17;
x11.18 <= y18;
x11.19 <= y19;
x12.0 <= y0;
x12.1 <= y1;
x12.2 <= y2;
x12.3 <= y3;
x12.4 <= y4;
x12.5 <= y5;
x12.6 <= y6;
x12.7 <= y7;
x12.8 <= y8;
x12.9 <= y9;
x12.10 <= y10;
x12.11 <= y11;
x12.12 <= y12;
x12.13 <= y13;
x12.14 <= y14;
x12.15 <= y15;
x12.16 <= y16;
x12.17 <= y17;
x12.18 <= y18;
x12.19 <= y19;
x13.0 <= y0;
x13.1 <= y1;
x13.2 <= y2;
x13.3 <= y3;
x13.4 <= y4;
x13.5 <= y5;
x13.6 <= y6;
x13.7 <= y7;
x13.8 <= y8;
x13.9 <= y9;
x13.10 <= y10;
x13.11 <= y11;
x13.12 <= y12;
x13.13 <= y13;
x13.14 <= y14;
x13.15 <= y15;
x13.16 <= y16;
x13.17 <= y17;
x13.18 <= y18;
x13.19 <= y19;
x14.0 <= y0;
x14.1 <= y1;
x14.2 <= y2;
x14.3 <= y3;
x14.4 <= y4;
x14.5 <= y5;
x14.6 <= y6;
x14.7 <= y7;
x14.8 <= y8;
x14.9 <= y9;
x14.10 <= y10;
x14.11 <= y11;
x14.12 <= y12;
x14.13 <= y13;
x14.14 <= y14;
x14.15 <= y15;
x14.16 <= y16;
x14.17 <= y17;
x14.18 <= y18;
x14.19 <= y19;
x15.0 <= y0;
x15.1 <= y1;
x15.2 <= y2;
x15.3 <= y3;
x15.4 <= y4;
x15.5 <= y5;
x15.6 <= y6;
x15.7 <= y7;
x15.8 <= y8;
x15.9 <= y9;
x15.10 <= y10;
x15.11 <= y11;
x15.12 <= y12;
x15.13 <= y13;
x15.14 <= y14;
x15.15 <= y15;
x15.16 <= y16;
x15.17 <= y17;
x15.18 <= y18;
x15.19 <= y19;
x16.0 <= y0;
x16.1 <= y1;
x16.2 <= y2;
x16.3 <= y3;
x16.4 <= y4;
x16.5 <= y5;
x16.6 <= y6;
x16.7 <= y7;
x16.8 <= y8;
x16.9 <= y9;
x16.10 <= y10;
x16.11 <= y11;
x16.12 <= y12;
x16.13 <= y13;
x16.14 <= y14;
x16.15 <= y15;
x16.16 <= y16;
x16.17 <= y17;
x16.18 <= y18;
x16.19 <= y19;
x17.0 <= y0;
x17.1 <= y1;
x17.2 <= y2;
x17.3 <= y3;
x17.4 <= y4;
x17.5 <= y5;
x17.6 <= y6;
x17.7 <= y7;
x17.8 <= y8;
x17.9 <= y9;
x17.10 <= y10;
x17.11 <= y11;
x17.12 <= y12;
x17.13 <= y13;
x17.14 <= y14;
x17.15 <= y15;
x17.16 <= y16;
x17.17 <= y17;
x17.18 <= y18;
x17.19 <= y19;
x18.0 <= y0;
x18.1 <= y1;
x18.2 <= y2;
x18.3 <= y3;
x18.4 <= y4;
x18.5 <= y5;
x18.6 <= y6;
x18.7 <= y7;
x18.8 <= y8;
x18.9 <= y9;
x18.10 <= y10;
x18.11 <= y11;
x18.12 <= y12;
x18.13 <= y13;
x18.14 <= y14;
x18.15 <= y15;
x18.16 <= y16;
x18.17 <= y17;
x18.18 <= y18;
x18.19 <= y19;
x19.0 <= y0;
x19.1 <= y1;
x19.2 <= y2;
x19.3 <= y3;
x19.4 <= y4;
x19.5 <= y5;
x19.6 <= y6;
x19.7 <= y7;
x19.8 <= y8;
x19.9 <= y9;
x19.10 <= y10;
x19.11 <= y11;
x19.12 <= y12;
x19.13 <= y13;
x19.14 <= y14;
x19.15 <= y15;
x19.16 <= y16;
x19.17 <= y17;
x19.18 <= y18;
x19.19 <= y19;
 z +0x0.0 -32x0.1 -31x0.2 -50x0.3 -47x0.4 -38x0.5 -36x0.6 -60x0.7 -31x0.8 -41x0.9 -17x0.10 -43x0.11 -45x0.12 -25x0.13 -47x0.14 -37x0.15 -20x0.16 -47x0.17 -55x0.18 -61x0.19  >= 0;
 z -32x1.0 +0x1.1 -29x1.2 -49x1.3 -37x1.4 -45x1.5 -23x1.6 -42x1.7 -21x1.8 -33x1.9 -15x1.10 -41x1.11 -13x1.12 -27x1.13 -49x1.14 -39x1.15 -30x1.16 -37x1.17 -62x1.18 -65x1.19  >= 0;
 z -31x2.0 -29x2.1 +0x2.2 -20x2.3 -44x2.4 -55x2.5 -33x2.6 -57x2.7 -20x2.8 -32x2.9 -14x2.10 -12x2.11 -42x2.12 -33x2.13 -23x2.14 -33x2.15 -29x2.16 -36x2.17 -61x2.18 -80x2.19  >= 0;
 z -50x3.0 -49x3.1 -20x3.2 +0x3.3 -64x3.4 -75x3.5 -53x3.6 -77x3.7 -40x3.8 -52x3.9 -34x3.10 -32x3.11 -62x3.12 -37x3.13 -43x3.14 -49x3.15 -49x3.16 -56x3.17 -72x3.18 -100x3.19  >= 0;
 z -47x4.0 -37x4.1 -44x4.2 -64x4.3 +0x4.4 -57x4.5 -35x4.6 -73x4.7 -26x4.8 -29x4.9 -30x4.10 -50x4.11 -50x4.12 -64x4.13 -67x4.14 -72x4.15 -45x4.16 -10x4.17 -67x4.18 -54x4.19  >= 0;
 z -38x5.0 -45x5.1 -55x5.2 -75x5.3 -57x5.4 +0x5.5 -22x5.6 -51x5.7 -55x5.8 -57x5.9 -41x5.10 -45x5.11 -57x5.12 -62x5.13 -43x5.14 -50x5.15 -56x5.16 -67x5.17 -17x5.18 -99x5.19  >= 0;
 z -36x6.0 -23x6.1 -33x6.2 -53x6.3 -35x6.4 -22x6.5 +0x6.6 -62x6.7 -33x6.8 -45x6.9 -19x6.10 -23x6.11 -36x6.12 -44x6.13 -56x6.14 -56x6.15 -34x6.16 -45x6.17 -39x6.18 -88x6.19  >= 0;
 z -60x7.0 -42x7.1 -57x7.2 -77x7.3 -73x7.4 -51x7.5 -62x7.6 +0x7.7 -57x7.8 -69x7.9 -43x7.10 -69x7.11 -55x7.12 -69x7.13 -80x7.14 -81x7.15 -58x7.16 -73x7.17 -68x7.18 -107x7.19  >= 0;
 z -31x8.0 -21x8.1 -20x8.2 -40x8.3 -26x8.4 -55x8.5 -33x8.6 -57x8.7 +0x8.8 -12x8.9 -14x8.10 -24x8.11 -34x8.12 -45x8.13 -43x8.14 -53x8.15 -29x8.16 -16x8.17 -41x8.18 -60x8.19  >= 0;
 z -41x9.0 -33x9.1 -32x9.2 -52x9.3 -29x9.4 -57x9.5 -45x9.6 -69x9.7 -12x9.8 +0x9.9 -26x9.10 -36x9.11 -46x9.12 -57x9.13 -55x9.14 -64x9.15 -21x9.16 -28x9.17 -53x9.18 -72x9.19  >= 0;
 z -17x10.0 -15x10.1 -14x10.2 -34x10.3 -30x10.4 -41x10.5 -19x10.6 -43x10.7 -14x10.8 -26x10.9 +0x10.10 -26x10.11 -28x10.12 -42x10.13 -37x10.14 -42x10.15 -15x10.16 -30x10.17 -55x10.18 -74x10.19  >= 0;
 z -43x11.0 -41x11.1 -12x11.2 -32x11.3 -50x11.4 -45x11.5 -23x11.6 -69x11.7 -24x11.8 -36x11.9 -26x11.10 +0x11.11 -54x11.12 -21x11.13 -35x11.14 -33x11.15 -41x11.16 -40x11.17 -62x11.18 -84x11.19  >= 0;
 z -45x12.0 -13x12.1 -42x12.2 -62x12.3 -50x12.4 -57x12.5 -36x12.6 -55x12.7 -34x12.8 -46x12.9 -28x12.10 -54x12.11 +0x12.12 -40x12.13 -41x12.14 -51x12.15 -43x12.16 -50x12.17 -74x12.18 -78x12.19  >= 0;
 z -25x13.0 -27x13.1 -33x13.2 -37x13.3 -64x13.4 -62x13.5 -44x13.6 -69x13.7 -45x13.8 -57x13.9 -42x13.10 -21x13.11 -40x13.12 +0x13.13 -22x13.14 -12x13.15 -41x13.16 -61x13.17 -45x13.18 -86x13.19  >= 0;
 z -47x14.0 -49x14.1 -23x14.2 -43x14.3 -67x14.4 -43x14.5 -56x14.6 -80x14.7 -43x14.8 -55x14.9 -37x14.10 -35x14.11 -41x14.12 -22x14.13 +0x14.14 -10x14.15 -52x14.16 -59x14.17 -43x14.18 -103x14.19  >= 0;
 z -37x15.0 -39x15.1 -33x15.2 -49x15.3 -72x15.4 -50x15.5 -56x15.6 -81x15.7 -53x15.8 -64x15.9 -42x15.10 -33x15.11 -51x15.12 -12x15.13 -10x15.14 +0x15.15 -43x15.16 -69x15.17 -33x15.18 -98x15.19  >= 0;
 z -20x16.0 -30x16.1 -29x16.2 -49x16.3 -45x16.4 -56x16.5 -34x16.6 -58x16.7 -29x16.8 -21x16.9 -15x16.10 -41x16.11 -43x16.12 -41x16.13 -52x16.14 -43x16.15 +0x16.16 -45x16.17 -70x16.18 -81x16.19  >= 0;
 z -47x17.0 -37x17.1 -36x17.2 -56x17.3 -10x17.4 -67x17.5 -45x17.6 -73x17.7 -16x17.8 -28x17.9 -30x17.10 -40x17.11 -50x17.12 -61x17.13 -59x17.14 -69x17.15 -45x17.16 +0x17.17 -57x17.18 -44x17.19  >= 0;
 z -55x18.0 -62x18.1 -61x18.2 -72x18.3 -67x18.4 -17x18.5 -39x18.6 -68x18.7 -41x18.8 -53x18.9 -55x18.10 -62x18.11 -74x18.12 -45x18.13 -43x18.14 -33x18.15 -70x18.16 -57x18.17 +0x18.18 -101x18.19  >= 0;
 z -61x19.0 -65x19.1 -80x19.2 -100x19.3 -54x19.4 -99x19.5 -88x19.6 -107x19.7 -60x19.8 -72x19.9 -74x19.10 -84x19.11 -78x19.12 -86x19.13 -103x19.14 -98x19.15 -81x19.16 -44x19.17 -101x19.18 +0x19.19  >= 0;
bin y0;
bin x0.0;
bin x0.1;
bin x0.2;
bin x0.3;
bin x0.4;
bin x0.5;
bin x0.6;
bin x0.7;
bin x0.8;
bin x0.9;
bin x0.10;
bin x0.11;
bin x0.12;
bin x0.13;
bin x0.14;
bin x0.15;
bin x0.16;
bin x0.17;
bin x0.18;
bin x0.19;
bin y1;
bin x1.0;
bin x1.1;
bin x1.2;
bin x1.3;
bin x1.4;
bin x1.5;
bin x1.6;
bin x1.7;
bin x1.8;
bin x1.9;
bin x1.10;
bin x1.11;
bin x1.12;
bin x1.13;
bin x1.14;
bin x1.15;
bin x1.16;
bin x1.17;
bin x1.18;
bin x1.19;
bin y2;
bin x2.0;
bin x2.1;
bin x2.2;
bin x2.3;
bin x2.4;
bin x2.5;
bin x2.6;
bin x2.7;
bin x2.8;
bin x2.9;
bin x2.10;
bin x2.11;
bin x2.12;
bin x2.13;
bin x2.14;
bin x2.15;
bin x2.16;
bin x2.17;
bin x2.18;
bin x2.19;
bin y3;
bin x3.0;
bin x3.1;
bin x3.2;
bin x3.3;
bin x3.4;
bin x3.5;
bin x3.6;
bin x3.7;
bin x3.8;
bin x3.9;
bin x3.10;
bin x3.11;
bin x3.12;
bin x3.13;
bin x3.14;
bin x3.15;
bin x3.16;
bin x3.17;
bin x3.18;
bin x3.19;
bin y4;
bin x4.0;
bin x4.1;
bin x4.2;
bin x4.3;
bin x4.4;
bin x4.5;
bin x4.6;
bin x4.7;
bin x4.8;
bin x4.9;
bin x4.10;
bin x4.11;
bin x4.12;
bin x4.13;
bin x4.14;
bin x4.15;
bin x4.16;
bin x4.17;
bin x4.18;
bin x4.19;
bin y5;
bin x5.0;
bin x5.1;
bin x5.2;
bin x5.3;
bin x5.4;
bin x5.5;
bin x5.6;
bin x5.7;
bin x5.8;
bin x5.9;
bin x5.10;
bin x5.11;
bin x5.12;
bin x5.13;
bin x5.14;
bin x5.15;
bin x5.16;
bin x5.17;
bin x5.18;
bin x5.19;
bin y6;
bin x6.0;
bin x6.1;
bin x6.2;
bin x6.3;
bin x6.4;
bin x6.5;
bin x6.6;
bin x6.7;
bin x6.8;
bin x6.9;
bin x6.10;
bin x6.11;
bin x6.12;
bin x6.13;
bin x6.14;
bin x6.15;
bin x6.16;
bin x6.17;
bin x6.18;
bin x6.19;
bin y7;
bin x7.0;
bin x7.1;
bin x7.2;
bin x7.3;
bin x7.4;
bin x7.5;
bin x7.6;
bin x7.7;
bin x7.8;
bin x7.9;
bin x7.10;
bin x7.11;
bin x7.12;
bin x7.13;
bin x7.14;
bin x7.15;
bin x7.16;
bin x7.17;
bin x7.18;
bin x7.19;
bin y8;
bin x8.0;
bin x8.1;
bin x8.2;
bin x8.3;
bin x8.4;
bin x8.5;
bin x8.6;
bin x8.7;
bin x8.8;
bin x8.9;
bin x8.10;
bin x8.11;
bin x8.12;
bin x8.13;
bin x8.14;
bin x8.15;
bin x8.16;
bin x8.17;
bin x8.18;
bin x8.19;
bin y9;
bin x9.0;
bin x9.1;
bin x9.2;
bin x9.3;
bin x9.4;
bin x9.5;
bin x9.6;
bin x9.7;
bin x9.8;
bin x9.9;
bin x9.10;
bin x9.11;
bin x9.12;
bin x9.13;
bin x9.14;
bin x9.15;
bin x9.16;
bin x9.17;
bin x9.18;
bin x9.19;
bin y10;
bin x10.0;
bin x10.1;
bin x10.2;
bin x10.3;
bin x10.4;
bin x10.5;
bin x10.6;
bin x10.7;
bin x10.8;
bin x10.9;
bin x10.10;
bin x10.11;
bin x10.12;
bin x10.13;
bin x10.14;
bin x10.15;
bin x10.16;
bin x10.17;
bin x10.18;
bin x10.19;
bin y11;
bin x11.0;
bin x11.1;
bin x11.2;
bin x11.3;
bin x11.4;
bin x11.5;
bin x11.6;
bin x11.7;
bin x11.8;
bin x11.9;
bin x11.10;
bin x11.11;
bin x11.12;
bin x11.13;
bin x11.14;
bin x11.15;
bin x11.16;
bin x11.17;
bin x11.18;
bin x11.19;
bin y12;
bin x12.0;
bin x12.1;
bin x12.2;
bin x12.3;
bin x12.4;
bin x12.5;
bin x12.6;
bin x12.7;
bin x12.8;
bin x12.9;
bin x12.10;
bin x12.11;
bin x12.12;
bin x12.13;
bin x12.14;
bin x12.15;
bin x12.16;
bin x12.17;
bin x12.18;
bin x12.19;
bin y13;
bin x13.0;
bin x13.1;
bin x13.2;
bin x13.3;
bin x13.4;
bin x13.5;
bin x13.6;
bin x13.7;
bin x13.8;
bin x13.9;
bin x13.10;
bin x13.11;
bin x13.12;
bin x13.13;
bin x13.14;
bin x13.15;
bin x13.16;
bin x13.17;
bin x13.18;
bin x13.19;
bin y14;
bin x14.0;
bin x14.1;
bin x14.2;
bin x14.3;
bin x14.4;
bin x14.5;
bin x14.6;
bin x14.7;
bin x14.8;
bin x14.9;
bin x14.10;
bin x14.11;
bin x14.12;
bin x14.13;
bin x14.14;
bin x14.15;
bin x14.16;
bin x14.17;
bin x14.18;
bin x14.19;
bin y15;
bin x15.0;
bin x15.1;
bin x15.2;
bin x15.3;
bin x15.4;
bin x15.5;
bin x15.6;
bin x15.7;
bin x15.8;
bin x15.9;
bin x15.10;
bin x15.11;
bin x15.12;
bin x15.13;
bin x15.14;
bin x15.15;
bin x15.16;
bin x15.17;
bin x15.18;
bin x15.19;
bin y16;
bin x16.0;
bin x16.1;
bin x16.2;
bin x16.3;
bin x16.4;
bin x16.5;
bin x16.6;
bin x16.7;
bin x16.8;
bin x16.9;
bin x16.10;
bin x16.11;
bin x16.12;
bin x16.13;
bin x16.14;
bin x16.15;
bin x16.16;
bin x16.17;
bin x16.18;
bin x16.19;
bin y17;
bin x17.0;
bin x17.1;
bin x17.2;
bin x17.3;
bin x17.4;
bin x17.5;
bin x17.6;
bin x17.7;
bin x17.8;
bin x17.9;
bin x17.10;
bin x17.11;
bin x17.12;
bin x17.13;
bin x17.14;
bin x17.15;
bin x17.16;
bin x17.17;
bin x17.18;
bin x17.19;
bin y18;
bin x18.0;
bin x18.1;
bin x18.2;
bin x18.3;
bin x18.4;
bin x18.5;
bin x18.6;
bin x18.7;
bin x18.8;
bin x18.9;
bin x18.10;
bin x18.11;
bin x18.12;
bin x18.13;
bin x18.14;
bin x18.15;
bin x18.16;
bin x18.17;
bin x18.18;
bin x18.19;
bin y19;
bin x19.0;
bin x19.1;
bin x19.2;
bin x19.3;
bin x19.4;
bin x19.5;
bin x19.6;
bin x19.7;
bin x19.8;
bin x19.9;
bin x19.10;
bin x19.11;
bin x19.12;
bin x19.13;
bin x19.14;
bin x19.15;
bin x19.16;
bin x19.17;
bin x19.18;
bin x19.19;
