Output/BruteForce/Random_020_05_5.ans
Facilties: 2 5 7 10 19 Score: 33
