Output/Exact/Random_020_05_5.lp.out
CPU Time for Parsing input: 0.001818s (0.001818s total since program start)
CPU Time for solving: 0.29025s (0.292068s total since program start)

Value of objective function: 33.00000000
